letting n =  10
letting blocks =  [[1, 3], [1, 4], [1, 6], [1, 7], [1, 9], [1, 10], [2, 4], [2, 5], [2, 7], [2, 10], [3, 1], [3, 2], [3, 3], [3, 4], [3, 8], [3, 10], [4, 1], [4, 2], [4, 3], [4, 7], [4, 10], [5, 1], [5, 2], [5, 5], [5, 6], [5, 8], [6, 1], [6, 2], [6, 3], [6, 5], [6, 6], [6, 9], [7, 1], [7, 5], [7, 8], [7, 9], [8, 3], [8, 6], [8, 8], [8, 9], [9, 4], [9, 5], [9, 6], [9, 7], [9, 8], [9, 10], [10, 1], [10, 5], [10, 6], [10, 7], [10, 8], [10, 10]]
